
%FILE DATA:	Soccer Computational Problem for MiniZinc Models	%
%AUTHOR:	Jack Wall	%
%CONTACT:  	116397063@umail.ucc.ie			%
%LAST UPDATE:	02/10/2020, 13:02:53						%
%DESCRIPTION: 	32 games played with 24 games left				%


n=8; %number of teams

%Games to play
games=[|2,7|1,3|7,1|1,7|4,7|3,4|1,8|8,2|2,8|4,5|7,5|6,1|7,3|6,5|5,3|3,6|6,7|5,2|5,1|6,3|3,1|1,4|7,6|4,8|];

%Initial points
iPoints=[5,15,10,8,17,14,8,9];

%POSITION CONSTRAINTS
% [|teamID, operator, position|...]
% operators index:
%  1 for =  operator
%  2 for >  operator
%  3 for >= operator
%  4 for <  operator
%  5 for <= operator
positionConstraints=[|1,5,1|2,3,2|];